00:00.0 clingo version 5.5.1
00:00.0 Reading from ...ols/../encodings/CTW_nat_optimal_V2.lp ...
30:00.215 UNKNOWN
30:00.320 
30:00.321 TIME LIMIT   : 1
30:00.322 Models       : 0+
30:00.322 Calls        : 1
30:00.323 Time         : 1800.095s (Solving: 0.00s 1st Model: 0.00s Unsat: 0.00s)
30:00.324 CPU Time     : 115.346s
